clingo version 5.6.2
Reading from ...ogen_asp_scripts/ijp_expt_cases-154.dl
Solving...
Answer: 1
res(3) witness(5,2,6) witness(6,4,5) witness(2,5,1) witness(6,5,5) witness(4,6,3) witness(5,6,6) number_of_witnesses(6)
SATISFIABLE

Models       : 1+
Calls        : 1
Time         : 217.054s (Solving: 206.92s 1st Model: 206.90s Unsat: 0.00s)
CPU Time     : 12472.583s
Threads      : 64       (Winner: 52)
